PARAMETER_FILE = even/LKH_uncomplete_graph/x10/de/par/random115.par
PROBLEM_FILE = even/LKH_uncomplete_graph/x10/de/mat/random115.tsp
Successes/Runs = 0/10
Cost.min = 810, Cost.avg = 810.00, Cost.max = 810
Gap.min = 0.0000%, Gap.avg = 0.0000%, Gap.max = 0.0000%
Trials.min = 1000, Trials.avg = 1000.0, Trials.max = 1000
Time.min = 0.36 sec., Time.avg = 0.42 sec., Time.max = 0.52 sec.
Time.total = 4.27 sec.
请按任意键继续. . . 
